(set-logic QF_SLIA)
(declare-fun var0 () String)
(assert (str.in_re var0 (re.++ ((_ re.loop 12 861) (re.++ (re.union (str.to_re "R") (re.union (str.to_re "?]") (re.union (str.to_re ";") (str.to_re "<")))) (re.++ (re.union (str.to_re "st") (re.union (str.to_re "?,") (re.union (str.to_re "L") (str.to_re "etq")))) (re.++ (re.union (str.to_re "Meu") (re.union (str.to_re "S") (re.union (str.to_re "P") (str.to_re "1:")))) (re.union (str.to_re "I") (re.union (str.to_re "(YS") (re.union (str.to_re "y)~") (str.to_re "`m")))))))) (re.++ ((_ re.loop 0 795) (re.++ (re.union (str.to_re "&W") (re.union (str.to_re "^") (re.union (str.to_re "%f") (str.to_re "Q7")))) (re.++ (re.union (str.to_re "eL9") (re.union (str.to_re "e&Z") (re.union (str.to_re "c)") (str.to_re "^`")))) (re.++ (re.union (str.to_re "F") (re.union (str.to_re "4OX") (re.union (str.to_re "e5") (str.to_re "xI")))) (re.union (str.to_re ",;") (re.union (str.to_re "\u0022v") (re.union (str.to_re "sF6") (str.to_re ":G9")))))))) (re.++ ((_ re.loop 13 340) (re.++ (re.union (str.to_re "Y") (re.union (str.to_re ".") (re.union (str.to_re ":r_") (str.to_re "f|>")))) (re.++ (re.union (str.to_re "[") (re.union (str.to_re "J") (re.union (str.to_re "z<") (str.to_re "fBB")))) (re.++ (re.union (str.to_re "EW") (re.union (str.to_re "|\u0022<") (re.union (str.to_re "^\u0022") (str.to_re "%-t")))) (re.union (str.to_re "|") (re.union (str.to_re "'") (re.union (str.to_re "D") (str.to_re ">/")))))))) ((_ re.loop 14 895) (re.++ (re.union (str.to_re "z&") (re.union (str.to_re "d@U") (re.union (str.to_re "U") (str.to_re "}b")))) (re.++ (re.union (str.to_re "'") (re.union (str.to_re "D~h") (re.union (str.to_re "aM") (str.to_re "1")))) (re.++ (re.union (str.to_re "7f") (re.union (str.to_re "5`") (re.union (str.to_re "B") (str.to_re "/C")))) (re.union (str.to_re "o") (re.union (str.to_re "9ye") (re.union (str.to_re "s") (str.to_re "3K")))))))))))))
(assert (not (str.in_re var0 (re.++ ((_ re.loop 17 989) (re.++ (re.union (str.to_re "dT") (re.union (str.to_re ")") (re.union (str.to_re "i") (str.to_re "R")))) (re.++ (re.union (str.to_re "O") (re.union (str.to_re "{5") (re.union (str.to_re ";8k") (str.to_re "{J/")))) (re.++ (re.union (str.to_re "c%a") (re.union (str.to_re "*<s") (re.union (str.to_re "d&z") (str.to_re "qd&")))) (re.union (str.to_re "|") (re.union (str.to_re "'\\") (re.union (str.to_re "z'g") (str.to_re ")")))))))) (re.++ ((_ re.loop 2 691) (re.++ (re.union (str.to_re "0>") (re.union (str.to_re "&mF") (re.union (str.to_re "T") (str.to_re "s")))) (re.++ (re.union (str.to_re "9") (re.union (str.to_re "11:") (re.union (str.to_re "\\K") (str.to_re "V#G")))) (re.++ (re.union (str.to_re "?7") (re.union (str.to_re "B}~") (re.union (str.to_re "hh") (str.to_re "[Z")))) (re.union (str.to_re "x") (re.union (str.to_re "d~d") (re.union (str.to_re "sH") (str.to_re "VZ)")))))))) (re.++ ((_ re.loop 0 613) (re.++ (re.union (str.to_re "p") (re.union (str.to_re "f") (re.union (str.to_re ";H\\") (str.to_re "V")))) (re.++ (re.union (str.to_re "?|") (re.union (str.to_re "io") (re.union (str.to_re "M&7") (str.to_re "S")))) (re.++ (re.union (str.to_re "dC") (re.union (str.to_re "2.N") (re.union (str.to_re "m3") (str.to_re "EZT")))) (re.union (str.to_re "d1T") (re.union (str.to_re ",") (re.union (str.to_re "rf%") (str.to_re "T;")))))))) ((_ re.loop 12 319) (re.++ (re.union (str.to_re "q-") (re.union (str.to_re "w+`") (re.union (str.to_re "gGf") (str.to_re "G")))) (re.++ (re.union (str.to_re "(HR") (re.union (str.to_re "'") (re.union (str.to_re "Ec") (str.to_re "/u")))) (re.++ (re.union (str.to_re "8PJ") (re.union (str.to_re "PG") (re.union (str.to_re "i") (str.to_re "@ZA")))) (re.union (str.to_re "Ot") (re.union (str.to_re "PQ") (re.union (str.to_re "&b") (str.to_re "37"))))))))))))))
(assert (not (str.in_re var0 (re.++ (re.* re.allchar) (re.++ (re.union (str.to_re "<") (re.union (str.to_re ">") (re.union (str.to_re "'") (re.union (str.to_re "\u0022") (str.to_re "&"))))) (re.* re.allchar))))))
(assert (<= 50 (str.len var0)))
(check-sat)
(get-model)
